set Progetti := P1 P2 P3 P4 P5 P6;
set Periodi := 1 2 3 4 5 6;

param FlussoCassa:
           1     2     3     4     5     6 :=
    P1    -2    -1     0     2     3     1
    P2    -3    -3    -1     4     3     4
    P3    -1    -3     1    -2     3     4
    P4     0    -4     0     5     1     0
    P5    -4     1     3     2     1     1
    P6    -2    -1     4    -2     2     2;

param Budget :=
    1 7
    2 7
    3 4
    4 1
    5 0
    6 0;

param RhoBar := 0.03;
